
%FILE DATA:	Soccer Computational Problem for MiniZinc Models	%
%AUTHOR:	Jack Wall	%
%CONTACT:  	116397063@umail.ucc.ie			%
%LAST UPDATE:	03/16/2020, 15:01:13						%
%DESCRIPTION: 	165 games played with 45 games left				%


n=15; %number of teams

%Games to play
games=[|5,10|14,3|5,9|1,13|4,14|13,14|12,6|1,4|6,4|4,13|13,8|1,12|7,3|1,5|2,14|3,1|10,7|14,11|9,13|4,7|9,3|13,7|2,15|12,5|4,2|8,5|10,11|12,10|6,3|3,15|5,14|14,15|1,2|5,13|6,14|3,14|5,11|9,11|10,3|1,8|11,4|9,14|13,1|14,9|15,6|];

%Initial points
iPoints=[36,38,40,31,18,32,36,31,24,34,24,23,31,17,27];

%POSITION CONSTRAINTS
% [|teamID, operator, position|...]
% operators index:
%  1 for =  operator
%  2 for >  operator
%  3 for >= operator
%  4 for <  operator
%  5 for <= operator
positionConstraints=[|3,5,1|1,3,2|2,5,3|13,3,4|];